Version identifier: 22.1.0.0 | 2022-03-09 | 1a383f8ce
CPXPARAM_Threads                                 1
CPXPARAM_MIP_Strategy_VariableSelect             3
CPXPARAM_TimeLimit                               600
Tried aggregator 1 time.
MIP Presolve eliminated 725 rows and 1428 columns.
Reduced MIP has 1786 rows, 2857 columns, and 21329 nonzeros.
Reduced MIP has 2856 binaries, 0 generals, 0 SOSs, and 0 indicators.
Presolve time = 0.01 sec. (10.07 ticks)
Found incumbent of value 8.000000 after 0.04 sec. (25.16 ticks)
Probing time = 0.00 sec. (2.71 ticks)
Tried aggregator 1 time.
Detecting symmetries...
Reduced MIP has 1786 rows, 2857 columns, and 21329 nonzeros.
Reduced MIP has 2856 binaries, 0 generals, 0 SOSs, and 0 indicators.
Presolve time = 0.01 sec. (9.68 ticks)
Probing time = 0.00 sec. (2.71 ticks)
Clique table members: 357.
MIP emphasis: balance optimality and feasibility.
MIP search method: dynamic search.
Parallel mode: none, using 1 thread.
Root relaxation solution time = 0.02 sec. (14.52 ticks)

        Nodes                                         Cuts/
   Node  Left     Objective  IInf  Best Integer    Best Bound    ItCnt     Gap

*     0+    0                            8.0000        0.0000           100.00%
      0     0        0.0000   127        8.0000        0.0000      630  100.00%
*     0+    0                            0.0000        0.0000             0.00%
      0     0        cutoff              0.0000        0.0000      630    0.00%
Elapsed time = 0.13 sec. (109.54 ticks, tree = 0.01 MB, solutions = 2)

Root node processing (before b&c):
  Real time             =    0.14 sec. (109.70 ticks)
Sequential b&c:
  Real time             =    0.00 sec. (0.00 ticks)
                          ------------
Total (root+branch&cut) =    0.14 sec. (109.70 ticks)
Primal:	0
Dual:	0
Status:	Optimal
Time:	0.16
Sequence:
	9
	9
	1
	4
	5
	9
	4
	5
	9
	4
	5
	9
	9
	5
	9
	5
	9
	5
	9
	9
	9
	9
	9
	9
	9
	9
	9
	9
	9
	9
	9
	9
	9
	5
	4
	9
	9
	9
	9
	9
	9
	9
	4
	5
	9
	9
	5
	4
	9
	9
	9
	5
	9
	9
	9
	9
	9
	9
	9
	9
	9
	9
	9
	9
	9
	9
	9
	9
	5
	9
	5
	0
	4
	5
	0
	4
	10
	9
	0
	4
	5
	0
	4
	4
	10
	0
	9
	4
	9
	5
	0
	5
	9
	5
	0
	4
	9
	5
	0
	9
	5
	4
	1
	0
	1
	9
	5
	4
	1
	0
	1
	9
	5
	0
	9
	1
	9
	9
	0
	4
	5
	9
	5
	0
	4
	5
	9
	0
	1
	4
	0
	4
	10
	0
	9
	1
	0
	4
	5
	9
	5
	0
	1
	9
	0
	4
	10
	4
	8
	10
	4
	0
	5
	4
	1
	4
	10
	2
	5
	9
	0
	9
	1
	4
	0
	5
	4
	9
	10
	0
	5
	9
	0
	4
	5
	0
	1
	9
	0
	9
	5
	0
	1
	9
	5
	0
	9
	10
	0
	4
	9
	1
	4
	10
	0
	4
	10
	2
	5
	4
	1
	4
	9
	8
	5
	9
	0
	4
	1
	0
	4
	4
	0
	1
	9
	5
	0
	9
	4
	5
	0
	9
	5
	0
	5
	9
	1
	0
	5
	4
	0
	5
	9
	0
	4
	1
	9
	1
	4
	4
	0
	5
	9
	1
	0
	1
	4
	1
	4
	4
	0
	4
	5
	0
	5
	9
	5
	0
	5
	9
	1
	9
	0
	5
	9
	4
	0
	1
	9
	5
	0
	5
	9
	1
	9
	0
	9
	5
	4
	1
	9
	5
	9
	9
	9
	5
	9
	1
	0
	9
	5
	4
	0
	5
	9
	0
	5
	9
	9
	1
	8
	4
	10
	0
	5
	9
	5
	9
	0
	5
	4
	0
	9
	10
	0
	5
	4
	10
	0
	5
	4
	1
	0
	9
	5
	2
	5
	9
	8
	9
	4
	4
	9
	0
	4
	5
	0
	10
	9
	5
	9
	5
	0
	1
	4
	10
	9
	0
	4
	5
	9
	5
	9
	0
	5
	4
	9
